12° run output:
{
    "Function": "ClusterA300.tsp",
    "Problem dimension": [
        40,
        299,
        60,
        191,
        39,
        30,
        80,
        192,
        280,
        247,
        231,
        86,
        200,
        227,
        186,
        298,
        106,
        171,
        116,
        114,
        250,
        292,
        203,
        36,
        33,
        193,
        101,
        276,
        161,
        5,
        72,
        258,
        291,
        27,
        142,
        47,
        139,
        169,
        109,
        257,
        224,
        96,
        19,
        58,
        187,
        133,
        184,
        38,
        119,
        272,
        175,
        0,
        94,
        246,
        82,
        81,
        217,
        182,
        53,
        214,
        59,
        43,
        277,
        181,
        220,
        18,
        136,
        141,
        180,
        263,
        125,
        122,
        128,
        92,
        115,
        64,
        4,
        159,
        135,
        29,
        66,
        2,
        211,
        194,
        16,
        91,
        294,
        107,
        105,
        76,
        67,
        15,
        269,
        176,
        131,
        6,
        46,
        278,
        1,
        155,
        177,
        185,
        261,
        148,
        42,
        62,
        11,
        156,
        89,
        206,
        35,
        111,
        197,
        243,
        268,
        264,
        213,
        153,
        252,
        266,
        287,
        248,
        104,
        245,
        130,
        230,
        281,
        93,
        32,
        34,
        160,
        68,
        196,
        98,
        77,
        198,
        233,
        285,
        226,
        202,
        254,
        236,
        229,
        157,
        56,
        24,
        251,
        273,
        237,
        221,
        259,
        45,
        172,
        297,
        288,
        57,
        225,
        87,
        147,
        158,
        49,
        165,
        55,
        222,
        289,
        282,
        108,
        28,
        48,
        83,
        50,
        14,
        218,
        240,
        90,
        290,
        85,
        75,
        121,
        204,
        270,
        256,
        23,
        234,
        166,
        144,
        7,
        293,
        123,
        162,
        120,
        255,
        21,
        154,
        140,
        173,
        143,
        208,
        283,
        215,
        253,
        145,
        17,
        3,
        95,
        124,
        65,
        265,
        274,
        241,
        242,
        207,
        219,
        118,
        183,
        164,
        199,
        146,
        284,
        78,
        167,
        44,
        296,
        99,
        295,
        232,
        244,
        238,
        74,
        63,
        12,
        84,
        152,
        163,
        31,
        126,
        190,
        129,
        205,
        54,
        286,
        279,
        195,
        262,
        210,
        70,
        151,
        117,
        112,
        201,
        168,
        61,
        223,
        26,
        188,
        103,
        73,
        271,
        149,
        102,
        137,
        134,
        113,
        170,
        110,
        212,
        69,
        228,
        174,
        267,
        37,
        20,
        71,
        178,
        9,
        150,
        132,
        25,
        235,
        209,
        88,
        138,
        275,
        51,
        97,
        239,
        10,
        216,
        8,
        179,
        79,
        22,
        100,
        260,
        249,
        41,
        13,
        189,
        127,
        52
    ],
    "Global Optimum": 0,
    "Algorithm": "Genetic algorithm",
    "Parameters": {
        "population": 30,
        "offspring": 30,
        "mutation probability": 0.0033333333333333335,
        "crossover probability": 0.9
    },
    "Fitness": 269570,
    "Solution": [
        40,
        299,
        60,
        191,
        39,
        30,
        80,
        192,
        280,
        247,
        231,
        86,
        200,
        227,
        186,
        298,
        106,
        171,
        116,
        114,
        250,
        292,
        203,
        36,
        33,
        193,
        101,
        276,
        161,
        5,
        72,
        258,
        291,
        27,
        142,
        47,
        139,
        169,
        109,
        257,
        224,
        96,
        19,
        58,
        187,
        133,
        184,
        38,
        119,
        272,
        175,
        0,
        94,
        246,
        82,
        81,
        217,
        182,
        53,
        214,
        59,
        43,
        277,
        181,
        220,
        18,
        136,
        141,
        180,
        263,
        125,
        122,
        128,
        92,
        115,
        64,
        4,
        159,
        135,
        29,
        66,
        2,
        211,
        194,
        16,
        91,
        294,
        107,
        105,
        76,
        67,
        15,
        269,
        176,
        131,
        6,
        46,
        278,
        1,
        155,
        177,
        185,
        261,
        148,
        42,
        62,
        11,
        156,
        89,
        206,
        35,
        111,
        197,
        243,
        268,
        264,
        213,
        153,
        252,
        266,
        287,
        248,
        104,
        245,
        130,
        230,
        281,
        93,
        32,
        34,
        160,
        68,
        196,
        98,
        77,
        198,
        233,
        285,
        226,
        202,
        254,
        236,
        229,
        157,
        56,
        24,
        251,
        273,
        237,
        221,
        259,
        45,
        172,
        297,
        288,
        57,
        225,
        87,
        147,
        158,
        49,
        165,
        55,
        222,
        289,
        282,
        108,
        28,
        48,
        83,
        50,
        14,
        218,
        240,
        90,
        290,
        85,
        75,
        121,
        204,
        270,
        256,
        23,
        234,
        166,
        144,
        7,
        293,
        123,
        162,
        120,
        255,
        21,
        154,
        140,
        173,
        143,
        208,
        283,
        215,
        253,
        145,
        17,
        3,
        95,
        124,
        65,
        265,
        274,
        241,
        242,
        207,
        219,
        118,
        183,
        164,
        199,
        146,
        284,
        78,
        167,
        44,
        296,
        99,
        295,
        232,
        244,
        238,
        74,
        63,
        12,
        84,
        152,
        163,
        31,
        126,
        190,
        129,
        205,
        54,
        286,
        279,
        195,
        262,
        210,
        70,
        151,
        117,
        112,
        201,
        168,
        61,
        223,
        26,
        188,
        103,
        73,
        271,
        149,
        102,
        137,
        134,
        113,
        170,
        110,
        212,
        69,
        228,
        174,
        267,
        37,
        20,
        71,
        178,
        9,
        150,
        132,
        25,
        235,
        209,
        88,
        138,
        275,
        51,
        97,
        239,
        10,
        216,
        8,
        179,
        79,
        22,
        100,
        260,
        249,
        41,
        13,
        189,
        127,
        52
    ],
    "Nb of functions evaluations": 400020,
    "Computational time in seconds": 743.1069836616516,
    "Stopping criterion in evaluations": 400000
}